\ENCODING=ISO-8859-1
\Problem name: ilog.cplex

Minimize
 obj1: - x_0_1 + x_0_2 + x_0_4 - x_0_7 - x_0_8 + x_0_10 + x_8_11 + x_8_13
       + x_8_16 + x_0_17 + x_8_18 - x_0_19 + x_16_19 + x_16_20 - x_0_21
       + x_16_21 - x_16_25 + x_24_28 - x_24_30 - x_24_31 - x_1_7 - x_1_8
       + x_1_10 - x_1_11 + x_9_13 + x_9_17 - x_1_18 - x_17_18 + x_9_19
       - x_17_19 - x_17_21 - x_9_24 - x_9_25 + x_1_26 - x_1_28 + x_17_28
       + x_25_28 + x_9_29 - x_17_29 - x_25_29 - x_9_30 + x_1_31 - x_2_6 - x_2_8
       - x_2_9 + x_2_11 + x_10_11 - x_10_13 + x_10_17 + x_18_20 - x_10_21
       + x_2_22 - x_2_25 + x_18_25 + x_10_26 + x_2_28 + x_18_30 - x_26_30
       + x_2_31 - x_26_31 - x_3_4 + x_3_5 + x_3_9 - x_11_12 - x_11_13 - x_11_14
       + x_3_15 - x_3_16 + x_11_17 + x_11_18 - x_11_20 - x_19_20 - x_3_21
       - x_19_21 + x_19_22 + x_3_23 + x_3_24 + x_3_28 + x_11_29 + x_27_29
       + x_3_30 + x_4_6 + x_4_9 - x_4_15 - x_12_16 + x_12_17 - x_12_18
       + x_12_19 + x_12_20 - x_12_21 + x_4_23 + x_20_23 - x_4_25 - x_4_28
       - x_12_28 + x_12_29 + x_28_29 - x_4_30 + x_5_6 + x_5_7 - x_5_8 + x_5_18
       - x_13_18 - x_13_19 + x_13_23 + x_21_23 + x_13_26 + x_13_27 + x_13_28
       - x_13_29 - x_21_29 - x_6_10 + x_6_11 + x_14_15 + x_6_17 + x_6_19
       - x_14_19 + x_14_21 + x_14_22 + x_22_24 + x_22_25 - x_22_26 - x_22_28
       + x_6_29 - x_6_30 + x_14_30 - x_22_30 + x_6_31 - x_22_31 + x_7_9
       - x_7_16 - x_15_18 - x_15_19 - x_15_20 + x_15_21 + x_7_22 - x_15_22
       - x_23_24 - x_23_25 - x_23_27 - x_23_28 + x_7_29 - x_15_31 + 68
Subject To
 c1:   - x_0_2 + x_0_8 + x_2_8 <= 1
 c2:   x_0_1 - x_0_4 + x_1_28 + x_4_28 <= 2
 c3:   - x_4_6 + x_4_30 + x_6_30 <= 1
 c4:   x_9_25 - x_4_9 + x_4_25 <= 1
 c5:   - x_0_10 + x_0_21 + x_10_21 <= 1
 c6:   - x_8_11 + x_1_8 + x_1_11 <= 1
 c7:   x_0_8 - x_8_13 + x_0_19 + x_13_19 <= 2
 c8:   x_0_7 + x_0_8 - x_8_16 + x_7_16 <= 2
 c9:   - x_0_17 + x_0_19 + x_17_19 <= 1
 c10:  x_17_18 - x_12_17 + x_12_18 <= 1
 c11:  - x_8_18 + x_1_8 + x_1_18 <= 1
 c12:  - x_16_19 + x_19_21 + x_12_16 + x_12_21 <= 2
 c13:  x_19_21 - x_12_19 + x_12_21 <= 1
 c14:  - x_16_20 + x_11_12 + x_11_20 + x_12_16 <= 2
 c15:  x_11_12 + x_11_20 - x_12_20 <= 1
 c16:  - x_16_21 + x_12_16 + x_12_21 <= 1
 c17:  - x_4_23 + x_4_25 + x_23_25 <= 1
 c18:  - x_24_28 + x_23_24 + x_23_28 <= 1
 c19:  x_12_21 - x_12_29 + x_21_29 <= 1
 c20:  x_2_6 + x_2_8 - x_5_6 + x_5_8 <= 2
 c21:  x_0_7 + x_0_8 - x_5_7 + x_5_8 <= 2
 c22:  x_0_1 + x_0_21 - x_1_10 + x_10_21 <= 2
 c23:  - x_9_17 + x_9_25 + x_17_29 + x_25_29 <= 2
 c24:  - x_1_26 + x_1_28 + x_22_26 + x_22_28 <= 2
 c25:  x_13_18 - x_13_26 + x_22_26 + x_15_18 + x_15_22 <= 3
 c26:  - x_25_28 + x_4_25 + x_4_28 <= 1
 c27:  x_12_18 + x_12_28 + x_13_18 - x_13_28 <= 2
 c28:  x_9_25 - x_9_29 + x_25_29 <= 1
 c29:  x_1_18 - x_1_31 + x_15_18 + x_15_31 <= 2
 c30:  - x_10_11 + x_10_13 + x_11_13 <= 1
 c31:  - x_14_15 + x_14_19 + x_15_19 <= 1
 c32:  x_17_21 - x_10_17 + x_10_21 <= 1
 c33:  - x_18_20 + x_15_18 + x_15_20 <= 1
 c34:  x_19_21 + x_14_19 - x_14_21 <= 1
 c35:  x_2_6 - x_2_22 + x_6_30 + x_22_30 <= 2
 c36:  x_24_30 - x_22_24 + x_22_30 <= 1
 c37:  x_16_25 - x_18_25 + x_12_16 + x_12_18 <= 2
 c38:  x_25_29 + x_2_6 + x_2_25 - x_6_29 <= 2
 c39:  - x_18_30 + x_22_30 + x_15_18 + x_15_22 <= 2
 c40:  x_24_31 + x_9_24 + x_2_9 - x_2_31 <= 2
 c41:  x_16_25 + x_9_25 - x_3_9 + x_3_16 <= 2
 c42:  x_16_25 + x_9_25 - x_7_9 + x_7_16 <= 2
 c43:  x_3_4 - x_3_15 + x_4_15 <= 1
 c44:  x_17_19 - x_11_17 + x_11_20 + x_19_20 <= 2
 c45:  x_1_11 + x_1_18 - x_11_18 <= 1
 c46:  x_19_21 + x_15_19 - x_15_21 <= 1
 c47:  - x_19_22 + x_15_19 + x_15_22 <= 1
 c48:  x_1_7 + x_1_28 + x_22_28 - x_7_22 <= 2
 c49:  x_16_25 + x_3_16 - x_3_23 + x_23_25 <= 2
 c50:  x_3_4 - x_3_28 + x_4_28 <= 1
 c51:  x_11_13 - x_11_29 + x_13_29 <= 1
 c52:  x_25_29 - x_27_29 + x_23_25 + x_23_27 <= 2
 c53:  x_3_4 - x_3_30 + x_4_30 <= 1
 c54:  x_0_1 - x_0_2 + x_1_8 + x_2_8 <= 2
 c55:  - x_0_4 + x_0_19 + x_4_15 + x_15_19 <= 2
 c56:  x_0_1 - x_0_8 + x_1_8 <= 1
 c57:  x_9_30 - x_4_9 + x_4_30 <= 1
 c58:  - x_0_10 + x_0_19 + x_10_13 + x_13_19 <= 2
 c59:  - x_8_16 + x_1_7 + x_1_8 + x_7_16 <= 2
 c60:  - x_0_17 + x_0_21 + x_17_21 <= 1
 c61:  x_17_21 + x_3_16 + x_3_21 + x_12_16 - x_12_17 <= 3
 c62:  - x_16_19 + x_3_16 + x_3_21 + x_19_21 <= 2
 c63:  x_3_16 + x_3_21 + x_19_21 + x_12_16 - x_12_19 <= 3
 c64:  - x_16_20 + x_3_16 + x_19_20 + x_3_21 + x_19_21 <= 3
 c65:  x_4_15 - x_12_20 + x_4_28 + x_12_28 + x_15_20 <= 3
 c66:  - x_16_21 + x_3_16 + x_3_21 <= 1
 c67:  x_3_16 + x_3_21 + x_12_16 - x_12_21 <= 2
 c68:  - x_4_23 + x_4_28 + x_23_28 <= 1
 c69:  x_1_7 + x_1_8 - x_5_7 + x_5_8 <= 2
 c70:  - x_1_10 + x_1_18 + x_10_13 + x_13_18 <= 2
 c71:  - x_9_17 + x_17_29 + x_25_29 + x_2_9 + x_2_25 <= 3
 c72:  - x_9_25 + x_2_9 + x_2_25 <= 1
 c73:  x_1_7 - x_1_28 + x_12_16 + x_12_28 + x_7_16 <= 3
 c74:  - x_9_29 + x_25_29 + x_2_9 + x_2_25 <= 2
 c75:  x_0_1 + x_0_19 - x_1_31 + x_15_19 + x_15_31 <= 3
 c76:  x_17_18 + x_10_13 - x_10_17 + x_13_18 <= 2
 c77:  x_10_13 + x_13_19 + x_6_10 - x_6_19 <= 2
 c78:  x_9_30 + x_2_9 - x_2_22 + x_22_30 <= 2
 c79:  x_2_25 - x_2_28 + x_4_25 + x_4_28 <= 2
 c80:  x_16_25 + x_2_9 + x_2_25 - x_3_9 + x_3_16 <= 3
 c81:  x_16_25 + x_2_9 + x_2_25 - x_7_9 + x_7_16 <= 3
 c82:  - x_11_13 + x_11_20 + x_19_20 + x_13_19 <= 2
 c83:  x_13_18 + x_13_19 - x_15_18 + x_15_19 <= 2
 c84:  x_12_16 + x_12_28 + x_22_28 + x_7_16 - x_7_22 <= 3
 c85:  x_3_16 - x_3_28 + x_12_16 + x_12_28 <= 2
 c86:  x_11_20 + x_19_20 - x_11_29 + x_13_19 + x_13_29 <= 3
 c87:  x_16_25 + x_2_6 + x_2_25 - x_4_6 + x_12_16 + x_4_28 + x_12_28 <= 5
 c88:  x_24_31 + x_9_24 - x_4_9 + x_4_15 + x_15_31 <= 3
 c89:  - x_8_16 + x_16_25 + x_2_8 + x_2_25 <= 2
 c90:  - x_16_19 + x_11_12 + x_11_14 + x_12_16 + x_14_19 <= 3
 c91:  x_11_12 + x_11_14 - x_12_19 + x_14_19 <= 2
 c92:  - x_16_20 + x_11_12 + x_11_14 + x_19_20 + x_12_16 + x_14_19 <= 4
 c93:  x_11_12 + x_11_14 + x_19_20 - x_12_20 + x_14_19 <= 3
 c94:  x_24_31 + x_4_15 - x_4_23 + x_23_24 + x_15_31 <= 3
 c95:  x_16_25 + x_12_16 - x_4_25 + x_4_28 + x_12_28 <= 3
 c96:  - x_24_28 + x_24_31 + x_22_28 + x_22_31 <= 2
 c97:  x_17_18 + x_17_29 + x_4_15 + x_4_28 - x_28_29 + x_15_18 <= 4
 c98:  x_26_30 + x_4_28 - x_4_30 + x_22_26 + x_22_28 <= 3
 c99:  x_16_25 - x_25_28 + x_12_16 + x_12_28 <= 2
 c100: x_16_25 - x_2_11 + x_2_25 + x_11_12 + x_12_16 <= 3
 c101: x_16_25 + x_2_6 + x_2_25 + x_11_12 + x_12_16 - x_6_11 <= 4
 c102: x_17_18 + x_17_19 - x_18_20 + x_19_20 <= 2
 c103: x_24_31 + x_9_24 + x_2_9 - x_2_22 + x_22_31 <= 3
 c104: x_24_31 - x_22_24 + x_22_31 <= 1
 c105: x_9_25 + x_9_30 + x_26_30 - x_22_25 + x_22_26 <= 3
 c106: x_16_25 + x_2_25 - x_2_28 + x_12_16 + x_12_28 <= 3
 c107: - x_18_30 + x_26_30 + x_22_26 + x_15_18 + x_15_22 <= 3
 c108: x_9_30 + x_2_6 + x_2_9 - x_6_30 <= 2
 c109: x_26_30 + x_22_26 - x_22_30 <= 1
 c110: x_24_31 + x_9_24 + x_2_6 + x_2_9 - x_6_31 <= 3
 c111: - x_11_13 + x_11_14 + x_13_19 + x_14_19 <= 2
 c112: x_11_14 - x_11_20 + x_19_20 + x_14_19 <= 2
 c113: x_19_20 + x_15_19 - x_15_20 <= 1
 c114: x_24_31 + x_22_28 + x_22_31 + x_23_24 - x_23_28 <= 3
 c115: x_0_7 + x_0_17 + x_17_29 - x_7_29 <= 2
 c116: x_0_7 + x_0_21 + x_21_29 - x_7_29 <= 2
 c117: - x_24_28 + x_24_30 + x_26_30 + x_26_31 + x_22_28 + x_22_31 <= 4
 c118: x_24_30 - x_24_31 + x_26_30 + x_26_31 <= 2
 c119: x_9_25 - x_25_28 + x_9_30 + x_26_30 + x_26_31 + x_22_28 + x_22_31 <= 5
 c120: x_2_6 - x_2_22 + x_26_30 + x_26_31 + x_6_30 + x_22_31 <= 4
 c121: - x_10_26 + x_26_30 + x_6_10 + x_6_30 <= 2
 c122: x_2_6 - x_2_28 + x_26_30 + x_26_31 + x_22_28 + x_6_30 + x_22_31 <= 5
 c123: x_2_6 + x_26_30 - x_2_31 + x_26_31 + x_6_30 <= 3
 c124: x_26_30 + x_26_31 - x_4_6 + x_4_15 + x_6_30 + x_15_31 <= 4
 c125: x_9_30 + x_26_30 + x_26_31 - x_4_9 + x_4_15 + x_15_31 <= 4
 c126: x_24_30 + x_26_30 + x_26_31 + x_4_15 - x_4_23 + x_23_24 + x_15_31 <= 5
 c127: x_9_25 + x_9_30 + x_26_30 + x_26_31 + x_4_15 - x_4_25 + x_15_31 <= 5
 c128: x_26_30 + x_26_31 + x_4_15 - x_4_30 + x_15_31 <= 3
 c129: x_24_30 + x_26_30 + x_26_31 - x_22_24 + x_22_31 <= 3
 c130: x_9_25 + x_9_30 + x_26_30 + x_26_31 - x_22_25 + x_22_31 <= 4
 c131: x_26_31 - x_22_26 + x_22_31 <= 1
 c132: x_26_30 + x_26_31 - x_22_30 + x_22_31 <= 2
 c133: x_26_30 + x_26_31 + x_6_30 - x_6_31 <= 2
 c134: x_22_31 - x_15_22 + x_15_31 <= 1
 c135: x_24_30 + x_26_30 + x_26_31 + x_22_28 + x_22_31 + x_23_24 - x_23_28 <= 5
 c136: - x_0_2 + x_0_10 + x_2_6 + x_6_10 <= 2
 c137: - x_0_4 + x_0_19 + x_19_20 + x_4_15 + x_15_20 <= 3
 c138: x_0_1 - x_0_7 + x_1_7 <= 1
 c139: - x_8_11 + x_8_18 + x_17_18 + x_17_29 + x_11_29 <= 3
 c140: - x_8_13 + x_8_18 + x_13_18 <= 1
 c141: x_0_8 - x_8_16 + x_0_21 + x_16_21 <= 2
 c142: x_0_1 - x_0_17 + x_1_18 + x_17_18 <= 2
 c143: x_0_19 - x_16_19 + x_0_21 + x_16_21 <= 2
 c144: x_0_19 - x_16_20 + x_0_21 + x_16_21 + x_19_20 <= 3
 c145: x_16_21 - x_16_25 + x_2_6 + x_10_21 + x_2_25 + x_6_10 <= 4
 c146: x_0_10 + x_0_19 - x_24_28 + x_9_24 + x_2_6 + x_2_9 + x_19_20 + x_12_20
       + x_12_28 + x_6_10 <= 8
 c147: x_0_10 + x_0_19 - x_24_30 + x_9_24 + x_2_6 + x_2_9 + x_19_20 + x_6_10
       + x_22_30 + x_15_20 + x_15_22 <= 9
 c148: x_0_10 + x_0_19 - x_24_31 + x_9_24 + x_2_6 + x_2_9 + x_19_20 + x_6_10
       + x_15_20 + x_15_31 <= 8
 c149: x_0_1 + x_0_8 - x_1_8 <= 1
 c150: x_0_1 + x_0_19 - x_1_11 + x_11_20 + x_19_20 <= 3
 c151: - x_9_13 + x_2_6 + x_2_9 + x_10_21 + x_13_29 + x_21_29 + x_6_10 <= 5
 c152: - x_9_17 + x_17_29 + x_2_6 + x_2_9 + x_10_21 + x_21_29 + x_6_10 <= 5
 c153: x_0_10 + x_0_19 - x_9_19 + x_2_6 + x_2_9 + x_6_10 <= 4
 c154: x_0_8 + x_8_18 + x_0_19 + x_17_18 - x_17_19 <= 3
 c155: - x_17_21 + x_17_29 + x_21_29 <= 1
 c156: x_0_1 + x_0_19 - x_1_26 + x_19_20 + x_22_26 + x_15_20 + x_15_22 <= 5
 c157: x_0_1 + x_0_19 - x_1_28 + x_19_20 + x_12_20 + x_12_28 <= 4
 c158: - x_17_28 + x_17_29 + x_11_20 + x_11_29 + x_12_20 + x_12_28 <= 4
 c159: x_0_10 + x_0_19 - x_25_28 + x_2_6 + x_2_25 + x_19_20 + x_12_20 + x_12_28
       + x_6_10 <= 7
 c160: - x_9_29 + x_2_6 + x_2_9 + x_10_21 + x_21_29 + x_6_10 <= 4
 c161: - x_25_29 + x_2_6 + x_10_21 + x_2_25 + x_21_29 + x_6_10 <= 4
 c162: x_0_10 + x_0_19 - x_9_30 + x_2_6 + x_2_9 + x_19_20 + x_6_10 + x_22_30
       + x_15_20 + x_15_22 <= 8
 c163: x_0_1 + x_0_19 - x_1_31 + x_19_20 + x_15_20 + x_15_31 <= 4
 c164: x_0_8 + x_0_10 + x_2_6 - x_2_8 + x_6_10 <= 3
 c165: x_2_6 - x_2_11 + x_10_21 + x_11_29 + x_21_29 + x_6_10 <= 4
 c166: - x_10_11 + x_10_21 + x_11_29 + x_21_29 <= 2
 c167: - x_10_13 + x_10_21 + x_13_29 + x_21_29 <= 2
 c168: x_17_29 - x_10_17 + x_10_21 + x_21_29 <= 2
 c169: x_0_8 + x_8_18 + x_0_19 - x_18_20 + x_19_20 <= 3
 c170: x_0_10 + x_0_19 + x_2_6 - x_2_22 + x_19_20 + x_6_10 + x_15_20 + x_15_22
       <= 6
 c171: x_1_10 + x_1_18 + x_2_6 + x_2_25 - x_18_25 + x_6_10 <= 4
 c172: x_0_10 + x_0_19 - x_10_26 + x_19_20 + x_22_26 + x_15_20 + x_15_22 <= 5
 c173: x_0_10 + x_0_19 + x_2_6 - x_2_28 + x_19_20 + x_12_20 + x_12_28 + x_6_10
       <= 6
 c174: x_0_8 + x_8_18 + x_0_19 - x_18_30 + x_19_20 + x_22_30 + x_15_20
       + x_15_22 <= 6
 c175: x_0_10 + x_0_19 + x_2_6 - x_2_31 + x_19_20 + x_6_10 + x_15_20 + x_15_31
       <= 6
 c176: x_0_19 + x_0_21 - x_3_4 + x_19_20 + x_3_21 + x_4_15 + x_15_20 <= 5
 c177: x_0_8 + x_0_21 - x_3_5 + x_3_21 + x_5_8 <= 3
 c178: x_2_6 + x_2_9 + x_10_21 - x_3_9 + x_3_21 + x_6_10 <= 4
 c179: - x_11_12 + x_11_20 + x_12_20 <= 1
 c180: - x_11_13 + x_11_29 + x_13_29 <= 1
 c181: - x_11_14 + x_11_20 + x_19_20 + x_14_19 <= 2
 c182: x_0_19 + x_0_21 - x_3_15 + x_19_20 + x_3_21 + x_15_20 <= 4
 c183: x_17_29 - x_11_17 + x_11_29 <= 1
 c184: x_17_18 + x_17_29 - x_11_18 + x_11_29 <= 2
 c185: x_0_19 + x_0_21 - x_19_21 <= 1
 c186: x_19_20 - x_19_22 + x_15_20 + x_15_22 <= 2
 c187: x_2_6 + x_10_21 + x_2_25 + x_3_21 - x_3_23 + x_6_10 + x_23_25 <= 5
 c188: x_9_24 + x_2_6 + x_2_9 + x_10_21 + x_3_21 - x_3_24 + x_6_10 <= 5
 c189: x_0_19 + x_0_21 + x_19_20 + x_3_21 - x_3_28 + x_12_20 + x_12_28 <= 5
 c190: x_2_6 + x_10_21 + x_2_25 - x_27_29 + x_21_29 + x_6_10 + x_23_25
       + x_23_27 <= 6
 c191: x_0_19 + x_0_21 + x_19_20 + x_3_21 - x_3_30 + x_22_30 + x_15_20
       + x_15_22 <= 6
 c192: x_0_10 + x_0_19 + x_19_20 - x_4_6 + x_4_15 + x_6_10 + x_15_20 <= 5
 c193: x_0_10 + x_0_19 + x_2_6 + x_2_9 + x_19_20 - x_4_9 + x_4_15 + x_6_10
       + x_15_20 <= 7
 c194: x_16_21 + x_11_20 + x_11_29 - x_12_16 + x_12_20 + x_21_29 <= 4
 c195: x_17_29 + x_11_20 + x_11_29 - x_12_17 + x_12_20 <= 3
 c196: x_17_18 + x_17_29 + x_11_20 + x_11_29 - x_12_18 + x_12_20 <= 4
 c197: x_19_20 - x_12_19 + x_12_20 <= 1
 c198: x_11_20 + x_11_29 + x_12_20 - x_12_21 + x_21_29 <= 3
 c199: x_0_10 + x_0_19 + x_2_6 + x_2_25 + x_19_20 + x_4_15 - x_4_23 + x_6_10
       + x_15_20 + x_23_25 <= 8
 c200: x_0_10 + x_0_19 + x_2_6 + x_2_25 + x_19_20 - x_20_23 + x_6_10 + x_23_25
       <= 6
 c201: x_0_10 + x_0_19 + x_2_6 + x_2_25 + x_19_20 + x_4_15 - x_4_25 + x_6_10
       + x_15_20 <= 7
 c202: x_11_20 + x_11_29 + x_12_20 - x_12_29 <= 2
 c203: x_11_20 + x_11_29 + x_12_20 + x_12_28 - x_28_29 <= 3
 c204: x_0_8 + x_0_10 - x_5_6 + x_5_8 + x_6_10 <= 3
 c205: x_8_18 + x_1_7 + x_1_18 - x_5_7 + x_5_8 <= 3
 c206: x_8_18 + x_5_8 - x_5_18 <= 1
 c207: x_0_8 + x_8_18 + x_0_19 + x_13_18 - x_13_19 <= 3
 c208: x_1_10 + x_1_18 + x_2_6 + x_2_25 + x_13_18 - x_13_23 + x_6_10 + x_23_25
       <= 6
 c209: x_2_6 + x_10_21 + x_2_25 - x_21_23 + x_6_10 + x_23_25 <= 4
 c210: x_11_20 + x_11_29 - x_13_26 + x_13_29 + x_22_26 + x_15_20 + x_15_22 <= 5
 c211: x_1_10 + x_1_18 + x_2_6 + x_2_25 + x_13_18 - x_13_27 + x_6_10 + x_23_25
       + x_23_27 <= 7
 c212: x_11_20 + x_11_29 + x_12_20 + x_12_28 - x_13_28 + x_13_29 <= 4
 c213: x_10_21 + x_11_29 + x_21_29 + x_6_10 - x_6_11 <= 3
 c214: x_19_20 - x_14_15 + x_14_19 + x_15_20 <= 2
 c215: x_17_29 + x_10_21 + x_21_29 + x_6_10 - x_6_17 <= 3
 c216: x_0_10 + x_0_19 + x_6_10 - x_6_19 <= 2
 c217: x_0_19 + x_0_21 + x_14_19 - x_14_21 <= 2
 c218: x_19_20 + x_14_19 - x_14_22 + x_15_20 + x_15_22 <= 3
 c219: x_0_10 + x_0_19 + x_9_24 + x_2_6 + x_2_9 + x_19_20 + x_6_10 - x_22_24
       + x_15_20 + x_15_22 <= 8
 c220: x_0_10 + x_0_19 + x_2_6 + x_2_25 + x_19_20 + x_6_10 - x_22_25 + x_15_20
       + x_15_22 <= 7
 c221: x_10_21 + x_21_29 + x_6_10 - x_6_29 <= 2
 c222: x_0_10 + x_0_19 + x_19_20 + x_6_10 - x_6_30 + x_22_30 + x_15_20
       + x_15_22 <= 6
 c223: x_19_20 + x_14_19 - x_14_30 + x_22_30 + x_15_20 + x_15_22 <= 4
 c224: x_0_10 + x_0_19 + x_19_20 + x_6_10 - x_6_31 + x_15_20 + x_15_31 <= 5
 c225: x_1_7 + x_1_10 + x_2_6 + x_2_9 + x_6_10 - x_7_9 <= 4
 c226: x_0_1 + x_0_21 + x_16_21 + x_1_7 - x_7_16 <= 3
 c227: x_17_18 + x_17_29 + x_11_20 + x_11_29 - x_15_18 + x_15_20 <= 4
 c228: x_19_20 - x_15_19 + x_15_20 <= 1
 c229: x_11_20 + x_11_29 + x_21_29 + x_15_20 - x_15_21 <= 3
 c230: x_0_1 + x_0_19 + x_1_7 + x_19_20 + x_15_20 - x_7_22 + x_15_22 <= 5
 c231: x_0_10 + x_0_19 + x_2_6 + x_2_25 + x_19_20 + x_12_20 + x_12_28 + x_6_10
       + x_23_25 - x_23_28 <= 8
 c232: x_0_1 + x_0_21 + x_1_7 + x_21_29 - x_7_29 <= 3
 c233: x_16_21 - x_16_25 + x_17_21 + x_17_29 + x_2_6 + x_10_13 + x_2_25
       + x_13_29 + x_6_10 <= 7
 c234: - x_24_28 + x_17_21 + x_9_24 + x_17_29 + x_2_6 + x_2_9 + x_10_13
       + x_12_21 + x_12_28 + x_13_29 + x_6_10 <= 9
 c235: - x_24_30 + x_17_21 + x_9_24 + x_17_29 + x_2_6 + x_2_9 + x_10_13
       + x_12_21 + x_4_28 + x_12_28 + x_4_30 + x_13_29 + x_6_10 <= 11
 c236: - x_24_31 + x_17_21 + x_9_24 + x_17_29 + x_2_6 + x_2_9 + x_10_13
       + x_12_21 + x_12_28 + x_13_29 + x_6_10 + x_22_28 + x_22_31 <= 11
 c237: - x_9_13 + x_2_6 + x_2_9 + x_10_13 + x_6_10 <= 3
 c238: - x_9_17 + x_17_29 + x_2_6 + x_2_9 + x_10_13 + x_13_29 + x_6_10 <= 5
 c239: - x_17_18 + x_17_29 + x_13_18 + x_13_29 <= 2
 c240: x_17_21 - x_17_28 + x_12_21 + x_12_28 <= 2
 c241: x_17_21 - x_25_28 + x_17_29 + x_2_6 + x_10_13 + x_2_25 + x_12_21
       + x_12_28 + x_13_29 + x_6_10 <= 8
 c242: - x_9_29 + x_2_6 + x_2_9 + x_10_13 + x_13_29 + x_6_10 <= 4
 c243: - x_25_29 + x_2_6 + x_10_13 + x_2_25 + x_13_29 + x_6_10 <= 4
 c244: x_17_21 + x_17_29 - x_9_30 + x_2_6 + x_2_9 + x_10_13 + x_12_21 + x_4_28
       + x_12_28 + x_4_30 + x_13_29 + x_6_10 <= 10
 c245: x_17_21 + x_17_29 + x_2_6 - x_2_11 + x_10_13 + x_11_12 + x_12_21
       + x_13_29 + x_6_10 <= 7
 c246: x_17_21 + x_17_29 - x_10_11 + x_10_13 + x_11_12 + x_12_21 + x_13_29 <= 5
 c247: x_17_29 + x_10_13 - x_10_17 + x_13_29 <= 2
 c248: x_17_21 + x_17_29 + x_10_13 - x_10_21 + x_13_29 <= 3
 c249: x_17_21 + x_17_29 + x_2_6 + x_10_13 - x_2_22 + x_12_21 + x_12_28
       + x_13_29 + x_6_10 + x_22_28 <= 8
 c250: x_2_6 + x_10_13 + x_2_25 - x_18_25 + x_13_18 + x_6_10 <= 4
 c251: x_17_21 + x_17_29 + x_10_13 - x_10_26 + x_12_21 + x_12_28 + x_13_29
       + x_22_26 + x_22_28 <= 7
 c252: x_17_21 + x_17_29 + x_2_6 + x_10_13 - x_2_28 + x_12_21 + x_12_28
       + x_13_29 + x_6_10 <= 7
 c253: x_17_21 + x_17_29 - x_18_30 + x_12_21 + x_4_28 + x_12_28 + x_4_30
       + x_13_18 + x_13_29 <= 7
 c254: x_17_21 + x_17_29 + x_2_6 + x_10_13 - x_2_31 + x_12_21 + x_12_28
       + x_13_29 + x_6_10 + x_22_28 + x_22_31 <= 9
 c255: - x_3_4 + x_3_21 + x_12_21 + x_4_28 + x_12_28 <= 3
 c256: x_17_21 + x_17_29 + x_2_6 + x_2_9 + x_10_13 - x_3_9 + x_3_21 + x_13_29
       + x_6_10 <= 7
 c257: x_17_21 + x_17_29 + x_11_12 - x_11_13 + x_12_21 + x_13_29 <= 4
 c258: - x_3_15 + x_3_21 + x_4_15 + x_12_21 + x_4_28 + x_12_28 <= 4
 c259: x_16_21 - x_3_16 + x_3_21 <= 1
 c260: x_17_21 + x_11_12 - x_11_17 + x_12_21 <= 2
 c261: x_17_21 + x_17_29 + x_11_12 - x_11_18 + x_12_21 + x_13_18 + x_13_29 <= 5
 c262: x_17_21 + x_17_29 + x_2_6 + x_10_13 + x_2_25 + x_3_21 - x_3_23 + x_13_29
       + x_6_10 + x_23_25 <= 8
 c263: x_17_21 + x_9_24 + x_17_29 + x_2_6 + x_2_9 + x_10_13 + x_3_21 - x_3_24
       + x_13_29 + x_6_10 <= 8
 c264: x_3_21 - x_3_28 + x_12_21 + x_12_28 <= 2
 c265: x_17_21 + x_17_29 + x_11_12 - x_11_29 + x_12_21 <= 3
 c266: x_2_6 + x_10_13 + x_2_25 - x_27_29 + x_13_29 + x_6_10 + x_23_25
       + x_23_27 <= 6
 c267: x_3_21 - x_3_30 + x_12_21 + x_4_28 + x_12_28 + x_4_30 <= 4
 c268: x_17_21 + x_17_29 + x_10_13 - x_4_6 + x_12_21 + x_4_28 + x_12_28
       + x_13_29 + x_6_10 <= 7
 c269: x_17_21 + x_17_29 + x_2_6 + x_2_9 + x_10_13 - x_4_9 + x_12_21 + x_4_28
       + x_12_28 + x_13_29 + x_6_10 <= 9
 c270: x_17_21 - x_12_17 + x_12_21 <= 1
 c271: x_17_21 + x_17_29 - x_12_18 + x_12_21 + x_13_18 + x_13_29 <= 4
 c272: x_17_21 + x_17_29 + x_2_6 + x_10_13 + x_2_25 + x_12_21 - x_4_23 + x_4_28
       + x_12_28 + x_13_29 + x_6_10 + x_23_25 <= 10
 c273: x_17_21 + x_17_29 + x_2_6 + x_10_13 + x_2_25 + x_12_21 - x_4_25 + x_4_28
       + x_12_28 + x_13_29 + x_6_10 <= 9
 c274: x_17_21 + x_17_29 + x_12_21 - x_12_29 <= 2
 c275: x_17_21 + x_17_29 + x_12_21 + x_12_28 - x_28_29 <= 3
 c276: x_2_6 + x_10_13 + x_2_25 - x_13_23 + x_6_10 + x_23_25 <= 4
 c277: x_17_21 + x_17_29 + x_2_6 + x_10_13 + x_2_25 - x_21_23 + x_13_29
       + x_6_10 + x_23_25 <= 7
 c278: x_17_21 + x_17_29 + x_12_21 + x_12_28 - x_13_26 + x_13_29 + x_22_26
       + x_22_28 <= 6
 c279: x_2_6 + x_10_13 + x_2_25 - x_13_27 + x_6_10 + x_23_25 + x_23_27 <= 5
 c280: x_17_21 + x_17_29 + x_12_21 + x_12_28 - x_13_28 + x_13_29 <= 4
 c281: x_17_21 + x_17_29 - x_21_29 <= 1
 c282: x_17_21 + x_17_29 + x_10_13 + x_11_12 + x_12_21 + x_13_29 + x_6_10
       - x_6_11 <= 6
 c283: x_11_12 + x_11_14 + x_4_15 + x_4_28 + x_12_28 - x_14_15 <= 4
 c284: x_17_29 + x_10_13 + x_13_29 + x_6_10 - x_6_17 <= 3
 c285: x_11_12 + x_11_14 + x_12_21 - x_14_21 <= 2
 c286: x_11_12 + x_11_14 + x_12_28 - x_14_22 + x_22_28 <= 3
 c287: x_17_21 + x_9_24 + x_17_29 + x_2_6 + x_2_9 + x_10_13 + x_12_21 + x_12_28
       + x_13_29 + x_6_10 - x_22_24 + x_22_28 <= 10
 c288: x_17_21 + x_17_29 + x_2_6 + x_10_13 + x_2_25 + x_12_21 + x_12_28
       + x_13_29 + x_6_10 - x_22_25 + x_22_28 <= 9
 c289: x_10_13 + x_13_29 + x_6_10 - x_6_29 <= 2
 c290: x_17_21 + x_17_29 + x_10_13 + x_12_21 + x_4_28 + x_12_28 + x_4_30
       + x_13_29 + x_6_10 - x_6_30 <= 8
 c291: x_11_12 + x_11_14 + x_4_28 + x_12_28 + x_4_30 - x_14_30 <= 4
 c292: x_17_21 + x_17_29 + x_10_13 + x_12_21 + x_12_28 + x_13_29 + x_6_10
       + x_22_28 - x_6_31 + x_22_31 <= 8
 c293: x_17_21 + x_17_29 + x_12_21 + x_12_28 + x_13_18 + x_13_29 + x_22_28
       - x_15_18 + x_15_22 <= 7
 c294: x_12_21 + x_12_28 + x_22_28 - x_15_21 + x_15_22 <= 3
 c295: x_17_21 + x_17_29 + x_2_6 + x_10_13 + x_2_25 + x_12_21 + x_12_28
       + x_13_29 + x_6_10 + x_23_25 - x_23_28 <= 9
 c296: - x_0_1 + x_0_17 + x_1_18 + x_17_18 <= 2
 c297: - x_0_4 + x_0_17 + x_1_18 + x_17_18 + x_1_28 + x_4_28 <= 4
 c298: - x_0_7 + x_0_17 + x_1_7 + x_1_18 + x_17_18 <= 3
 c299: - x_16_19 + x_1_7 + x_1_18 + x_17_18 + x_17_19 + x_7_16 <= 4
 c300: - x_16_21 + x_1_7 + x_1_18 + x_17_18 + x_17_21 + x_7_16 <= 4
 c301: - x_1_26 + x_1_28 + x_26_30 + x_4_28 + x_4_30 <= 3
 c302: x_1_18 + x_17_18 + x_1_28 - x_17_28 <= 2
 c303: x_1_28 - x_1_31 + x_4_15 + x_4_28 + x_15_31 <= 3
 c304: x_1_18 + x_1_28 - x_18_30 + x_4_28 + x_4_30 <= 3
 c305: x_1_18 + x_17_18 + x_17_21 + x_1_28 - x_3_4 + x_3_21 + x_4_28 <= 5
 c306: x_1_18 + x_17_18 + x_17_21 + x_1_28 - x_3_15 + x_3_21 + x_4_15 + x_4_28
       <= 6
 c307: x_1_7 + x_1_18 + x_17_18 + x_17_21 - x_3_16 + x_3_21 + x_7_16 <= 5
 c308: x_1_18 + x_17_18 + x_17_19 + x_1_28 - x_19_22 + x_4_28 + x_4_30
       + x_22_30 <= 6
 c309: x_1_18 + x_17_18 + x_17_21 + x_1_28 + x_3_21 - x_3_28 <= 4
 c310: x_1_18 + x_17_18 + x_17_21 + x_1_28 + x_3_21 - x_3_30 + x_4_28 + x_4_30
       <= 6
 c311: x_1_18 + x_17_18 + x_1_28 - x_12_17 + x_12_28 <= 3
 c312: x_1_18 + x_1_28 - x_12_18 + x_12_28 <= 2
 c313: x_1_18 + x_17_18 + x_17_19 + x_1_28 - x_12_19 + x_12_28 <= 4
 c314: x_1_18 + x_17_18 + x_17_21 + x_1_28 - x_12_21 + x_12_28 <= 4
 c315: x_1_18 + x_17_18 + x_1_28 + x_17_29 + x_12_28 - x_12_29 <= 4
 c316: x_1_18 + x_17_18 + x_1_28 + x_17_29 - x_28_29 <= 3
 c317: x_1_18 + x_1_28 + x_26_30 + x_4_28 + x_4_30 + x_13_18 - x_13_26 <= 5
 c318: x_1_18 + x_1_28 + x_13_18 - x_13_28 <= 2
 c319: x_4_15 + x_4_28 - x_22_28 + x_15_22 <= 2
 c320: x_1_18 + x_1_28 + x_4_15 + x_4_28 - x_15_18 <= 3
 c321: x_1_18 + x_17_18 + x_17_19 + x_1_28 + x_4_15 + x_4_28 - x_15_19 <= 5
 c322: x_1_18 + x_17_18 + x_17_21 + x_1_28 + x_4_15 + x_4_28 - x_15_21 <= 5
 c323: x_1_7 + x_1_28 + x_4_28 + x_4_30 + x_22_30 - x_7_22 <= 4
 c324: x_1_7 + x_1_18 + x_17_18 + x_17_29 - x_7_29 <= 3
 c325: x_0_17 - x_0_21 + x_17_21 <= 1
 c326: x_17_21 - x_17_29 + x_21_29 <= 1
 c327: x_11_14 + x_11_20 - x_14_15 + x_15_20 <= 2
 c328: x_11_14 + x_11_20 - x_14_22 + x_15_20 + x_15_22 <= 3
 c329: x_11_14 + x_11_20 - x_14_30 + x_22_30 + x_15_20 + x_15_22 <= 4
 c330: x_0_7 + x_0_17 + x_17_21 + x_21_29 - x_7_29 <= 3
 c331: - x_0_4 + x_0_19 + x_4_15 + x_13_18 + x_13_19 + x_15_18 <= 4
 c332: - x_0_17 + x_0_19 + x_17_18 + x_13_18 + x_13_19 <= 3
 c333: x_0_7 + x_0_19 - x_16_19 + x_7_16 <= 2
 c334: x_0_7 + x_0_19 - x_16_20 + x_19_20 + x_7_16 <= 3
 c335: x_0_19 - x_0_21 + x_17_18 + x_17_21 + x_13_18 + x_13_19 <= 4
 c336: x_0_7 + x_0_19 - x_16_21 + x_17_18 + x_17_21 + x_13_18 + x_13_19
       + x_7_16 <= 6
 c337: x_1_11 - x_1_18 + x_11_13 + x_13_18 <= 2
 c338: x_17_18 - x_17_19 + x_13_18 + x_13_19 <= 2
 c339: x_1_11 + x_17_18 + x_1_28 - x_17_28 + x_11_13 + x_13_18 <= 4
 c340: x_9_25 + x_9_30 - x_2_6 + x_2_25 + x_6_30 <= 3
 c341: x_9_25 - x_2_9 + x_2_25 <= 1
 c342: - x_18_20 + x_19_20 + x_13_18 + x_13_19 <= 2
 c343: x_9_24 + x_9_25 - x_2_22 + x_2_25 + x_22_24 <= 3
 c344: - x_10_26 + x_6_10 + x_22_26 + x_6_30 + x_22_30 <= 3
 c345: - x_26_30 + x_22_26 + x_22_30 <= 1
 c346: x_24_31 + x_9_24 + x_9_25 + x_2_25 - x_2_31 <= 3
 c347: x_17_18 + x_17_21 - x_3_4 + x_3_21 + x_4_15 + x_15_18 <= 4
 c348: x_1_11 + x_1_28 - x_11_12 + x_12_28 <= 2
 c349: x_17_18 + x_17_21 - x_3_15 + x_3_21 + x_15_18 <= 3
 c350: x_0_7 + x_0_19 + x_17_18 + x_17_21 - x_3_16 + x_3_21 + x_13_18 + x_13_19
       + x_7_16 <= 7
 c351: x_17_18 + x_11_13 - x_11_17 + x_13_18 <= 2
 c352: x_11_13 - x_11_18 + x_13_18 <= 1
 c353: x_17_18 + x_17_21 - x_19_21 + x_13_18 + x_13_19 <= 3
 c354: x_1_11 + x_17_18 + x_17_21 + x_1_28 + x_11_13 + x_3_21 - x_3_28
       + x_13_18 <= 6
 c355: x_17_18 + x_17_29 + x_11_13 - x_11_29 + x_13_18 <= 3
 c356: x_1_11 + x_17_18 + x_1_28 + x_11_13 - x_12_17 + x_12_28 + x_13_18 <= 5
 c357: x_1_11 + x_1_28 + x_11_13 - x_12_18 + x_12_28 + x_13_18 <= 4
 c358: x_0_7 + x_0_19 + x_12_16 - x_12_19 + x_7_16 <= 3
 c359: x_1_11 + x_1_28 + x_11_20 - x_12_20 + x_12_28 <= 3
 c360: x_1_11 + x_17_18 + x_17_21 + x_1_28 + x_11_13 - x_12_21 + x_12_28
       + x_13_18 <= 6
 c361: x_1_11 + x_1_28 + x_11_13 + x_4_15 - x_4_28 + x_13_18 + x_15_18 <= 5
 c362: x_1_11 + x_17_18 + x_1_28 + x_17_29 + x_11_13 + x_12_28 - x_12_29
       + x_13_18 <= 6
 c363: x_1_11 + x_17_18 + x_1_28 + x_17_29 + x_11_13 - x_28_29 + x_13_18 <= 5
 c364: x_9_25 + x_9_30 + x_2_8 + x_2_25 - x_5_6 + x_5_8 + x_6_30 <= 5
 c365: x_1_11 + x_1_28 + x_11_13 - x_13_28 <= 2
 c366: x_17_18 + x_17_29 + x_13_18 - x_13_29 <= 2
 c367: x_11_13 + x_11_14 + x_13_18 - x_14_15 + x_15_18 <= 3
 c368: x_11_14 + x_11_20 + x_19_20 - x_14_19 <= 2
 c369: x_17_18 + x_17_21 + x_11_13 + x_11_14 + x_13_18 - x_14_21 <= 4
 c370: x_9_24 + x_9_25 + x_22_24 - x_22_25 <= 2
 c371: x_24_30 + x_24_31 + x_6_30 - x_6_31 <= 2
 c372: x_13_18 + x_13_19 + x_15_18 - x_15_19 <= 2
 c373: x_19_20 + x_13_18 + x_13_19 + x_15_18 - x_15_20 <= 3
 c374: x_17_18 + x_17_21 + x_15_18 - x_15_21 <= 2
 c375: x_0_7 + x_0_19 + x_17_18 + x_17_29 + x_13_18 + x_13_19 - x_7_29 <= 5
 c376: - x_8_13 + x_25_29 + x_2_8 + x_2_25 + x_13_29 <= 3
 c377: - x_8_18 + x_17_18 + x_17_29 + x_25_29 + x_2_8 + x_2_25 <= 4
 c378: - x_16_20 + x_24_28 + x_12_16 + x_12_28 + x_22_24 + x_15_20 + x_15_22
       <= 5
 c379: x_24_28 - x_1_26 + x_1_28 + x_22_24 + x_22_26 <= 3
 c380: x_24_28 + x_24_31 + x_1_28 - x_1_31 <= 2
 c381: x_17_18 + x_17_29 + x_25_29 - x_18_25 <= 2
 c382: x_2_8 + x_2_25 + x_3_4 - x_3_5 + x_4_25 + x_5_8 <= 4
 c383: x_24_28 + x_1_11 + x_1_28 - x_11_20 + x_22_24 + x_15_20 + x_15_22 <= 5
 c384: x_24_28 - x_12_20 + x_12_28 + x_22_24 + x_15_20 + x_15_22 <= 4
 c385: - x_20_23 + x_22_24 + x_15_20 + x_15_22 + x_23_24 <= 3
 c386: x_17_18 + x_17_29 + x_25_29 + x_2_8 + x_2_25 + x_5_8 - x_5_18 <= 5
 c387: x_24_28 + x_1_11 + x_1_28 + x_11_14 - x_14_15 + x_22_24 + x_15_22 <= 5
 c388: x_24_28 + x_1_11 + x_1_28 + x_11_14 - x_14_22 + x_22_24 <= 4
 c389: x_24_28 + x_22_24 - x_22_28 <= 1
 c390: x_24_28 + x_24_30 + x_1_11 + x_1_28 + x_11_14 - x_14_30 <= 4
 c391: x_24_28 + x_1_7 + x_9_24 + x_1_28 - x_7_9 <= 3
 c392: x_24_28 + x_1_7 + x_1_28 + x_22_24 - x_7_22 <= 3
 c393: x_1_11 - x_1_18 + x_11_12 + x_12_18 <= 2
 c394: x_9_24 - x_9_25 + x_23_24 + x_23_25 <= 2
 c395: x_9_24 - x_2_9 + x_2_25 + x_23_24 + x_23_25 <= 3
 c396: - x_2_22 + x_2_25 + x_22_24 + x_23_24 + x_23_25 <= 3
 c397: x_24_31 + x_2_25 - x_2_31 + x_23_24 + x_23_25 <= 3
 c398: x_11_12 - x_11_18 + x_12_18 <= 1
 c399: x_22_24 - x_22_25 + x_23_24 + x_23_25 <= 2
 c400: x_25_29 - x_3_4 + x_3_21 + x_4_25 + x_21_29 <= 3
 c401: x_25_29 + x_2_8 + x_2_25 - x_3_5 + x_3_21 + x_5_8 + x_21_29 <= 5
 c402: - x_0_1 + x_0_19 + x_1_18 + x_13_18 + x_13_19 <= 3
 c403: - x_0_7 + x_0_19 + x_1_7 + x_1_18 + x_13_18 + x_13_19 <= 4
 c404: - x_16_19 + x_12_16 + x_12_18 + x_13_18 + x_13_19 <= 3
 c405: - x_16_21 + x_19_21 + x_12_16 + x_12_18 + x_13_18 + x_13_19 <= 4
 c406: - x_17_18 + x_17_19 + x_13_18 + x_13_19 <= 2
 c407: - x_3_16 + x_3_21 + x_19_21 + x_12_16 + x_12_18 + x_13_18 + x_13_19 <= 5
 c408: x_17_19 + x_11_13 - x_11_17 + x_13_19 <= 2
 c409: x_17_19 + x_17_29 + x_11_13 - x_11_29 + x_13_19 <= 3
 c410: x_17_19 - x_12_17 + x_12_18 + x_13_18 + x_13_19 <= 3
 c411: x_12_18 - x_12_19 + x_13_18 + x_13_19 <= 2
 c412: x_19_21 + x_12_18 - x_12_21 + x_13_18 + x_13_19 <= 3
 c413: x_17_19 + x_17_29 + x_12_18 - x_12_29 + x_13_18 + x_13_19 <= 4
 c414: x_17_19 + x_17_29 + x_13_19 - x_13_29 <= 2
 c415: x_11_13 + x_11_14 + x_13_19 - x_14_19 <= 2
 c416: x_11_13 + x_11_14 + x_19_21 + x_13_19 - x_14_21 <= 3
 c417: x_1_7 + x_1_18 + x_17_19 + x_17_29 + x_13_18 + x_13_19 - x_7_29 <= 5
 c418: - x_0_4 + x_0_21 + x_4_15 + x_12_18 + x_12_21 + x_15_18 <= 4
 c419: x_0_1 - x_0_17 + x_1_11 + x_11_17 <= 2
 c420: x_0_1 - x_0_19 + x_1_11 + x_17_19 + x_11_17 <= 3
 c421: - x_16_19 + x_1_7 + x_1_11 + x_17_19 + x_11_17 + x_7_16 <= 4
 c422: - x_16_20 + x_1_7 + x_1_11 + x_11_20 + x_7_16 <= 3
 c423: x_0_1 + x_0_21 - x_1_18 + x_12_18 + x_12_21 <= 3
 c424: x_0_1 + x_0_21 + x_1_11 - x_17_18 + x_11_17 + x_12_18 + x_12_21 <= 5
 c425: x_0_1 + x_0_21 + x_1_11 - x_17_21 + x_11_17 <= 3
 c426: x_0_1 + x_0_21 - x_1_26 + x_12_18 + x_12_21 + x_22_26 + x_15_18
       + x_15_22 <= 6
 c427: x_0_1 + x_0_21 - x_1_28 + x_12_18 + x_12_21 + x_22_28 + x_15_18
       + x_15_22 <= 6
 c428: x_0_1 + x_0_21 + x_1_11 - x_17_28 + x_11_17 + x_12_18 + x_12_21
       + x_22_28 + x_15_18 + x_15_22 <= 8
 c429: x_0_1 + x_0_21 - x_1_31 + x_12_18 + x_12_21 + x_15_18 + x_15_31 <= 5
 c430: x_1_7 + x_1_11 - x_18_20 + x_11_20 + x_12_16 + x_12_18 + x_7_16 <= 5
 c431: - x_3_4 + x_3_16 + x_4_15 + x_12_16 + x_12_18 + x_15_18 <= 4
 c432: x_0_1 + x_0_21 + x_1_11 - x_11_12 + x_12_21 <= 3
 c433: - x_3_15 + x_3_16 + x_12_16 + x_12_18 + x_15_18 <= 3
 c434: x_0_1 + x_0_21 + x_1_11 - x_11_18 + x_12_18 + x_12_21 <= 4
 c435: x_0_1 + x_0_21 + x_1_11 + x_11_14 - x_19_21 + x_14_19 <= 4
 c436: x_0_1 + x_0_21 + x_1_11 + x_11_14 - x_19_22 + x_12_18 + x_12_21
       + x_14_19 + x_15_18 + x_15_22 <= 8
 c437: x_3_16 - x_3_28 + x_12_16 + x_12_18 + x_22_28 + x_15_18 + x_15_22 <= 5
 c438: x_17_29 + x_11_17 - x_11_29 <= 1
 c439: x_1_7 + x_1_11 + x_11_17 + x_12_16 - x_12_17 + x_7_16 <= 4
 c440: x_1_7 + x_1_11 + x_17_19 + x_11_17 + x_12_16 - x_12_19 + x_7_16 <= 5
 c441: x_1_7 + x_1_11 + x_11_20 + x_12_16 - x_12_20 + x_7_16 <= 4
 c442: x_12_18 - x_12_28 + x_22_28 + x_15_18 + x_15_22 <= 3
 c443: x_1_7 + x_1_11 + x_17_29 + x_11_17 + x_12_16 - x_12_29 + x_7_16 <= 5
 c444: x_1_7 + x_1_11 + x_17_29 + x_11_17 + x_4_15 + x_12_16 + x_12_18 + x_4_28
       - x_28_29 + x_7_16 + x_15_18 <= 9
 c445: x_0_1 + x_0_21 + x_1_11 + x_11_13 + x_12_18 + x_12_21 - x_13_18 <= 5
 c446: x_0_1 + x_0_21 + x_1_11 + x_11_13 + x_12_18 + x_12_21 - x_13_26
       + x_22_26 + x_15_18 + x_15_22 <= 8
 c447: x_0_1 + x_0_21 + x_1_11 + x_11_13 + x_12_18 + x_12_21 - x_13_28
       + x_22_28 + x_15_18 + x_15_22 <= 8
 c448: x_17_19 + x_17_29 + x_13_19 - x_13_29 <= 2
 c449: x_0_1 + x_0_21 + x_1_11 + x_17_29 + x_11_17 - x_21_29 <= 4
 c450: x_0_1 + x_0_21 + x_1_11 + x_11_14 + x_12_18 + x_12_21 - x_14_15
       + x_15_18 <= 6
 c451: x_0_1 + x_0_21 + x_1_11 + x_11_14 - x_14_21 <= 3
 c452: x_0_1 + x_0_21 + x_1_11 + x_11_14 + x_12_18 + x_12_21 - x_14_22
       + x_15_18 + x_15_22 <= 7
 c453: x_1_7 + x_1_11 + x_17_19 + x_11_17 + x_12_16 + x_12_18 + x_7_16
       + x_15_18 - x_15_19 <= 7
 c454: x_1_7 + x_1_11 + x_11_20 + x_12_16 + x_12_18 + x_7_16 + x_15_18
       - x_15_20 <= 6
 c455: x_12_18 + x_12_21 + x_15_18 - x_15_21 <= 2
 c456: x_12_16 + x_12_18 + x_7_16 + x_15_18 - x_7_22 + x_15_22 <= 4
 c457: x_1_7 + x_1_11 + x_17_29 + x_11_17 - x_7_29 <= 3
Bounds
 0 <= x_0_1 <= 1
 0 <= x_0_2 <= 1
 0 <= x_0_4 <= 1
 0 <= x_0_7 <= 1
 0 <= x_0_8 <= 1
 0 <= x_0_10 <= 1
 0 <= x_8_11 <= 1
 0 <= x_8_13 <= 1
 0 <= x_8_16 <= 1
 0 <= x_0_17 <= 1
 0 <= x_8_18 <= 1
 0 <= x_0_19 <= 1
 0 <= x_16_19 <= 1
 0 <= x_16_20 <= 1
 0 <= x_0_21 <= 1
 0 <= x_16_21 <= 1
 0 <= x_16_25 <= 1
 0 <= x_24_28 <= 1
 0 <= x_24_30 <= 1
 0 <= x_24_31 <= 1
 0 <= x_1_7 <= 1
 0 <= x_1_8 <= 1
 0 <= x_1_10 <= 1
 0 <= x_1_11 <= 1
 0 <= x_9_13 <= 1
 0 <= x_9_17 <= 1
 0 <= x_1_18 <= 1
 0 <= x_17_18 <= 1
 0 <= x_9_19 <= 1
 0 <= x_17_19 <= 1
 0 <= x_17_21 <= 1
 0 <= x_9_24 <= 1
 0 <= x_9_25 <= 1
 0 <= x_1_26 <= 1
 0 <= x_1_28 <= 1
 0 <= x_17_28 <= 1
 0 <= x_25_28 <= 1
 0 <= x_9_29 <= 1
 0 <= x_17_29 <= 1
 0 <= x_25_29 <= 1
 0 <= x_9_30 <= 1
 0 <= x_1_31 <= 1
 0 <= x_2_6 <= 1
 0 <= x_2_8 <= 1
 0 <= x_2_9 <= 1
 0 <= x_2_11 <= 1
 0 <= x_10_11 <= 1
 0 <= x_10_13 <= 1
 0 <= x_10_17 <= 1
 0 <= x_18_20 <= 1
 0 <= x_10_21 <= 1
 0 <= x_2_22 <= 1
 0 <= x_2_25 <= 1
 0 <= x_18_25 <= 1
 0 <= x_10_26 <= 1
 0 <= x_2_28 <= 1
 0 <= x_18_30 <= 1
 0 <= x_26_30 <= 1
 0 <= x_2_31 <= 1
 0 <= x_26_31 <= 1
 0 <= x_3_4 <= 1
 0 <= x_3_5 <= 1
 0 <= x_3_9 <= 1
 0 <= x_11_12 <= 1
 0 <= x_11_13 <= 1
 0 <= x_11_14 <= 1
 0 <= x_3_15 <= 1
 0 <= x_3_16 <= 1
 0 <= x_11_17 <= 1
 0 <= x_11_18 <= 1
 0 <= x_11_20 <= 1
 0 <= x_19_20 <= 1
 0 <= x_3_21 <= 1
 0 <= x_19_21 <= 1
 0 <= x_19_22 <= 1
 0 <= x_3_23 <= 1
 0 <= x_3_24 <= 1
 0 <= x_3_28 <= 1
 0 <= x_11_29 <= 1
 0 <= x_27_29 <= 1
 0 <= x_3_30 <= 1
 0 <= x_4_6 <= 1
 0 <= x_4_9 <= 1
 0 <= x_4_15 <= 1
 0 <= x_12_16 <= 1
 0 <= x_12_17 <= 1
 0 <= x_12_18 <= 1
 0 <= x_12_19 <= 1
 0 <= x_12_20 <= 1
 0 <= x_12_21 <= 1
 0 <= x_4_23 <= 1
 0 <= x_20_23 <= 1
 0 <= x_4_25 <= 1
 0 <= x_4_28 <= 1
 0 <= x_12_28 <= 1
 0 <= x_12_29 <= 1
 0 <= x_28_29 <= 1
 0 <= x_4_30 <= 1
 0 <= x_5_6 <= 1
 0 <= x_5_7 <= 1
 0 <= x_5_8 <= 1
 0 <= x_5_18 <= 1
 0 <= x_13_18 <= 1
 0 <= x_13_19 <= 1
 0 <= x_13_23 <= 1
 0 <= x_21_23 <= 1
 0 <= x_13_26 <= 1
 0 <= x_13_27 <= 1
 0 <= x_13_28 <= 1
 0 <= x_13_29 <= 1
 0 <= x_21_29 <= 1
 0 <= x_6_10 <= 1
 0 <= x_6_11 <= 1
 0 <= x_14_15 <= 1
 0 <= x_6_17 <= 1
 0 <= x_6_19 <= 1
 0 <= x_14_19 <= 1
 0 <= x_14_21 <= 1
 0 <= x_14_22 <= 1
 0 <= x_22_24 <= 1
 0 <= x_22_25 <= 1
 0 <= x_22_26 <= 1
 0 <= x_22_28 <= 1
 0 <= x_6_29 <= 1
 0 <= x_6_30 <= 1
 0 <= x_14_30 <= 1
 0 <= x_22_30 <= 1
 0 <= x_6_31 <= 1
 0 <= x_22_31 <= 1
 0 <= x_7_9 <= 1
 0 <= x_7_16 <= 1
 0 <= x_15_18 <= 1
 0 <= x_15_19 <= 1
 0 <= x_15_20 <= 1
 0 <= x_15_21 <= 1
 0 <= x_7_22 <= 1
 0 <= x_15_22 <= 1
 0 <= x_23_24 <= 1
 0 <= x_23_25 <= 1
 0 <= x_23_27 <= 1
 0 <= x_23_28 <= 1
 0 <= x_7_29 <= 1
 0 <= x_15_31 <= 1
Generals
 x_0_1  x_0_2  x_0_4  x_0_7  x_0_8  x_0_10  x_8_11  x_8_13  x_8_16  x_0_17 
 x_8_18  x_0_19  x_16_19  x_16_20  x_0_21  x_16_21  x_16_25  x_24_28  x_24_30 
 x_24_31  x_1_7  x_1_8  x_1_10  x_1_11  x_9_13  x_9_17  x_1_18  x_17_18 
 x_9_19  x_17_19  x_17_21  x_9_24  x_9_25  x_1_26  x_1_28  x_17_28  x_25_28 
 x_9_29  x_17_29  x_25_29  x_9_30  x_1_31  x_2_6  x_2_8  x_2_9  x_2_11 
 x_10_11  x_10_13  x_10_17  x_18_20  x_10_21  x_2_22  x_2_25  x_18_25  x_10_26 
 x_2_28  x_18_30  x_26_30  x_2_31  x_26_31  x_3_4  x_3_5  x_3_9  x_11_12 
 x_11_13  x_11_14  x_3_15  x_3_16  x_11_17  x_11_18  x_11_20  x_19_20  x_3_21 
 x_19_21  x_19_22  x_3_23  x_3_24  x_3_28  x_11_29  x_27_29  x_3_30  x_4_6 
 x_4_9  x_4_15  x_12_16  x_12_17  x_12_18  x_12_19  x_12_20  x_12_21  x_4_23 
 x_20_23  x_4_25  x_4_28  x_12_28  x_12_29  x_28_29  x_4_30  x_5_6  x_5_7 
 x_5_8  x_5_18  x_13_18  x_13_19  x_13_23  x_21_23  x_13_26  x_13_27  x_13_28 
 x_13_29  x_21_29  x_6_10  x_6_11  x_14_15  x_6_17  x_6_19  x_14_19  x_14_21 
 x_14_22  x_22_24  x_22_25  x_22_26  x_22_28  x_6_29  x_6_30  x_14_30  x_22_30 
 x_6_31  x_22_31  x_7_9  x_7_16  x_15_18  x_15_19  x_15_20  x_15_21  x_7_22 
 x_15_22  x_23_24  x_23_25  x_23_27  x_23_28  x_7_29  x_15_31 
End
